33545 17984
15656 2506
64199 51745
4119 21528
51915 38184
64165 43386
23252 45906
8627 35699
39462 23459
48395 11489
33878 41906
35895 52785
61791 11685
55030 9624
58808 35623
17246 32469
19839 3983
45344 25584
38866 18173
56040 24373
6692 5174
49307 21868
12969 11931
1235 23130
35617 41130
32060 42263
33614 6631
24900 63547
47163 61381
20860 58824
62063 46924
13851 65498
42342 654
40992 57502
50211 1080
26036 51408
32846 49238
21725 34029
19416 12884
27883 44272
50087 26633
3529 60199
59411 65495
49146 43767
42417 58173
13463 490
5040 7568
5960 63436
18091 56788
16782 16490
9330 3618
